StringID   Type       x          y          demand     ReadyTime  DueDate    ServiceTime wp1 wp2 wp3 wp4 wp5 wp6 wp7 wp8 wp9 wp10 wp11 wp12 wp13 wp14 wp15 wp16 wp17
D0         d          35.0       35.0       0.0        0.0        1000.0     0.0         6   7   8   9   10  11  12  13  14  15   16   17   18   19   20   21   22
S0         f          35.0       35.0       0.0        0.0        1000.0     0.0         0.2 0.4 0.6 1   1   1   1   1   1   1    1    0.6  0.4  0.2  0    0    0 
S5         f          28.0       62.0       0.0        0.0        1000.0     0.0         0   0.1 0.2 0.3 0.3 0.2 0.2 0.2 0.2 0.3  0.3  0.2  0.1  0.0  0    0    0 
S13        f          21.0       22.0       0.0        0.0        1000.0     0.0         0   0.1 0.2 0.3 0.3 0.2 0.2 0.2 0.2 0.3  0.3  0.2  0.1  0.0  0    0    0  
S15        f          34.0       16.0       0.0        0.0        1000.0     0.0         0.2 0.4 0.6 1   1   1   1   1   1   1    1    0.6  0.4  0.2  0    0    0
C77        c          53.0       43.0       14.0       86.0       224.0      10.0       
C50        c          47.0       47.0       13.0       507.0      599.0      10.0       
C18        c          20.0       40.0       12.0       403.0      513.0      10.0       
C28        c          41.0       37.0       16.0       357.0      495.0      10.0       
C32        c          35.0       69.0       23.0       501.0      621.0      10.0       
C31        c          31.0       52.0       27.0       591.0      809.0      10.0       
C84        c          11.0       31.0       7.0        314.0      448.0      10.0       
C72        c          47.0       16.0       25.0       104.0      252.0      10.0       
C94        c          26.0       27.0       27.0       534.0      642.0      10.0       
C100       c          18.0       18.0       17.0       118.0      148.0      10.0       

Q Vehicle fuel tank capacity /9.4/
C Vehicle load capacity /1000.0/
r fuel consumption rate /0.155/
g inverse refueling rate /0.5/
v average Velocity /1.0/

